(set-logic LIA)

(synth-fun getHeight ( (__iv__input_0_ Int) (__iv__input_1_ Int) (__iv__input_2_ Int) (__iv__input_3_ Int) (__iv__input_4_ Int) (__iv__input_5_ Int) (__iv__input_6_ Int) (__iv__input_7_ Int) (__iv__input_8_ Int) (__iv__input_9_ Int) (__iv__input_10_ Int) (__iv__input_11_ Int) (__iv__input_12_ Int) (__iv__input_13_ Int) (__iv__input_14_ Int) (__iv__input_15_ Int) (__iv__input_16_ Int) (__iv__input_17_ Int) (__iv__input_18_ Int) (__iv__input_19_ Int) (__iv__input_20_ Int) (__iv__input_21_ Int) (__iv__input_22_ Int) (__iv__input_23_ Int) (__iv__input_24_ Int) (__iv__input_25_ Int) (__iv__input_26_ Int) (__iv__input_27_ Int) (__iv__input_28_ Int) (__iv__input_29_ Int) (__iv__input_30_ Int) (__iv__input_31_ Int) (__iv__input_32_ Int) (__iv__input_33_ Int) (__iv__input_34_ Int) (__iv__input_35_ Int) (__iv__input_36_ Int) (__iv__input_37_ Int) (__iv__input_38_ Int) (__iv__input_39_ Int) (__iv__input_40_ Int) (__iv__input_41_ Int)) Int
((Start Int (ntInt))
(ntInt Int (
	0 1 2 3 4 -1 5 
	__iv__input_0_ __iv__input_1_ __iv__input_2_ __iv__input_3_ __iv__input_4_ __iv__input_5_ __iv__input_6_ __iv__input_7_ __iv__input_8_ __iv__input_9_ __iv__input_10_ __iv__input_11_ __iv__input_12_ __iv__input_13_ __iv__input_14_ __iv__input_15_ __iv__input_16_ __iv__input_17_ __iv__input_18_ __iv__input_19_ __iv__input_20_ __iv__input_21_ __iv__input_22_ __iv__input_23_ __iv__input_24_ __iv__input_25_ __iv__input_26_ __iv__input_27_ __iv__input_28_ __iv__input_29_ __iv__input_30_ __iv__input_31_ __iv__input_32_ __iv__input_33_ __iv__input_34_ __iv__input_35_ __iv__input_36_ __iv__input_37_ __iv__input_38_ __iv__input_39_ __iv__input_40_ __iv__input_41_ 
	(* ntInt ntInt)
	(+ ntInt ntInt)
	(ite ntBool ntInt ntInt)
	(- ntInt ntInt)
))
(ntBool Bool (
	(not ntBool)
	(or ntBool ntBool)
	(and ntBool ntBool)
	(< ntInt ntInt)
	(= ntInt ntInt)
	(>= ntInt ntInt)
))
))

(constraint (=(getHeight 7 197 0 0 248 0 131 0 0 0 0 0 0 0 0 0 0 0 7 2 0 0 0 0 0 0 0 0 0 0 3 0 131 0 192 88 3 64 0 0 67 0) 43))
(constraint (=(getHeight 7 0 0 0 0 0 131 0 0 0 0 0 7 0 0 0 0 0 10 0 0 0 0 0 0 0 0 0 0 0 0 0 3 0 192 93 3 64 0 0 0 0) 90))
(constraint (=(getHeight 7 0 0 2 0 0 190 0 0 6 43 0 0 0 0 0 72 0 184 0 0 187 0 0 0 0 0 0 0 0 0 0 0 0 185 6 5 64 0 172 0 0) 6))
(check-synth)